50 1 3
668 516 299 28 988 882 479 981 712 300 197 912 613 845 261 271 760 86 577 376 126 593 863 996 782 107 806 735 712 326 489 380 841 787 408 828 669 886 808 381 185 5 292 798 850 552 69 609 638 645 
985 764 238 847 759 19 954 564 753 666 889 242 46 729 28 453 557 697 338 365 77 523 369 368 321 218 920 389 827 558 34 811 321 271 658 80 290 611 644 43 277 532 284 322 261 312 774 818 8 112 
182 84 635 551 452 955 768 372 344 595 929 377 405 250 648 62 329 937 673 972 979 949 504 263 270 765 574 44 583 581 155 764 665 790 315 117 744 83 488 88 677 417 465 81 667 112 142 996 49 814 
9680 280 7630 4720 2900 320 2360 8640 750 8180 4450 2300 5820 1090 190 8960 2260 7630 9790 7140 8500 6550 1310 3140 7360 7970 4260 8770 7920 4740 6910 7590 5020 4530 2300 7920 4850 4660 6550 5600 2840 990 7900 8650 2080 8090 7610 4330 5710 7400 
133570
